%chk=test1.chk
# b3lyp/6-31+g(d)   Symmetry=None formcheck

Newtes
	      
0 1
C        1.20  0.0  0.0
O        2.42 0.0 0.0

