%chk=test1.chk
# b3lyp/6-31+g(d)   Symmetry=None formcheck

Newtes
	      
0 1
C        0.0  0.0  0.0
O        1.22 0.0 0.0

